p edge 25 25
e 1 10
e 1 18
e 2 9
e 4 14
e 6 22
e 7 14
e 8 13
e 8 14
e 8 22
e 9 12
e 9 22
e 10 15
e 11 14
e 12 15
e 12 22
e 13 24
e 14 19
e 14 22
e 15 17
e 15 23
e 17 18
e 17 24
e 18 21
e 18 24
e 22 23
